(set-logic QF_S)
(declare-fun var0 () String)
(declare-fun var1 () String)
(declare-fun var2 () String)
(declare-fun var3 () String)
(declare-fun var4 () String)
(declare-fun var5 () String)
(declare-fun var6 () String)
(declare-fun var7 () String)
(declare-fun var8 () String)
(declare-fun var9 () String)
(declare-fun var10 () String)
(declare-fun var11 () String)
(declare-fun var12 () String)
(declare-fun var13 () String)
(declare-fun var14 () String)
(declare-fun var15 () String)
(declare-fun var16 () String)
(declare-fun var17 () String)
(declare-fun var18 () String)
(declare-fun var19 () String)
(declare-fun var20 () String)
(declare-fun var21 () String)
(declare-fun var22 () String)
(declare-fun var23 () String)
(declare-fun var24 () String)
(declare-fun var25 () String)
(declare-fun var26 () String)
(declare-fun var27 () String)
(declare-fun var28 () String)
(declare-fun var29 () String)
(declare-fun var30 () String)
(declare-fun var31 () String)
(declare-fun var32 () String)
(declare-fun var33 () String)
(declare-fun var34 () String)
(declare-fun var35 () String)
(declare-fun var36 () String)
(declare-fun var37 () String)
(declare-fun var38 () String)
(declare-fun var39 () String)
(declare-fun var40 () String)
(declare-fun var41 () String)
(declare-fun var42 () String)
(declare-fun var43 () String)
(declare-fun var44 () String)
(declare-fun var45 () String)
(declare-fun var46 () String)
(declare-fun var47 () String)
(declare-fun var48 () String)
(declare-fun var49 () String)
(declare-fun var50 () String)
(declare-fun var51 () String)
(declare-fun var52 () String)
(declare-fun var53 () String)
(declare-fun var54 () String)
(declare-fun var55 () String)
(declare-fun var56 () String)
(declare-fun var57 () String)
(declare-fun var58 () String)
(declare-fun var59 () String)
(declare-fun var60 () String)
(assert (= var0 (str.++ var1 var2)))
(assert (= var2 (str.++ var3 var4)))
(assert (= var4 (str.++ var5 var6)))
(assert (= var6 (str.++ var7 var8)))
(assert (= var8 (str.++ var9 var10)))
(assert (= var10 (str.++ var11 var12)))
(assert (= var12 (str.++ var13 var14)))
(assert (= var14 (str.++ var15 var16)))
(assert (= var16 (str.++ var17 var18)))
(assert (= var18 (str.++ var19 var20)))
(assert (= var20 (str.++ var21 var22)))
(assert (= var22 (str.++ var23 var24)))
(assert (= var24 (str.++ var25 var26)))
(assert (= var26 (str.++ var27 var28)))
(assert (= var28 (str.++ var29 var30)))
(assert (= var30 (str.++ var31 var32)))
(assert (= var32 (str.++ var33 var34)))
(assert (= var34 (str.++ var35 var36)))
(assert (= var36 (str.++ var37 var38)))
(assert (= var38 (str.++ var39 var40)))
(assert (= var40 (str.++ var41 var42)))
(assert (= var42 (str.++ var43 var44)))
(assert (= var44 (str.++ var45 var46)))
(assert (= var46 (str.++ var47 var48)))
(assert (= var48 (str.++ var49 var50)))
(assert (= var50 (str.++ var51 var52)))
(assert (= var52 (str.++ var53 var54)))
(assert (= var54 (str.++ var55 var56)))
(assert (= var56 (str.++ var57 var58)))
(assert (= var58 (str.++ var59 var60)))
(assert (= var0 "solution"))
(assert (= "f" (str.at var27 153)))
(assert (= "a" (str.at var56 961)))
(assert (= "!" (str.at var41 877)))
(assert (= "(" (str.at var19 329)))
(assert (= "x" (str.at var37 458)))
(assert (= "f" (str.at var34 483)))
(assert (= "5" (str.at var58 216)))
(assert (= "X" (str.at var7 314)))
(assert (= "t" (str.at var4 264)))
(assert (= "=" (str.at var33 170)))
(assert (= "S" (str.at var9 809)))
(assert (= "-" (str.at var19 464)))
(assert (= "N" (str.at var25 688)))
(assert (= "l" (str.at var12 214)))
(assert (= "u" (str.at var22 454)))
(assert (= "h" (str.at var24 442)))
(assert (= "F" (str.at var19 280)))
(assert (= "c" (str.at var18 144)))
(assert (= "J" (str.at var28 85)))
(assert (= "b" (str.at var14 7)))
(assert (= "j" (str.at var11 22)))
(assert (= "2" (str.at var24 364)))
(assert (= "}" (str.at var9 362)))
(assert (= "J" (str.at var18 140)))
(assert (= "X" (str.at var46 826)))
(assert (= "&" (str.at var30 370)))
(assert (= "." (str.at var37 206)))
(assert (= "S" (str.at var23 818)))
(assert (= "r" (str.at var15 612)))
(assert (= "`" (str.at var7 910)))
(assert (= "E" (str.at var57 928)))
(assert (= "h" (str.at var7 706)))
(assert (= "Q" (str.at var12 90)))
(assert (= "&" (str.at var2 624)))
(assert (= "^" (str.at var53 194)))
(assert (= "l" (str.at var43 746)))
(assert (= "}" (str.at var55 310)))
(assert (= "4" (str.at var0 794)))
(assert (= "B" (str.at var48 95)))
(assert (= "*" (str.at var28 523)))
(assert (= "<" (str.at var11 125)))
(assert (= "X" (str.at var19 293)))
(assert (= "\\" (str.at var54 241)))
(assert (= ";" (str.at var9 355)))
(assert (= "@" (str.at var14 915)))
(assert (= "R" (str.at var16 259)))
(assert (= "9" (str.at var55 811)))
(assert (= "W" (str.at var50 839)))
(assert (= "#" (str.at var23 31)))
(assert (= "t" (str.at var3 336)))
(assert (= "'" (str.at var14 304)))
(assert (= "L" (str.at var59 875)))
(assert (= "~" (str.at var40 747)))
(assert (= ">" (str.at var45 34)))
(assert (= "v" (str.at var19 737)))
(assert (= "V" (str.at var37 459)))
(assert (= "Z" (str.at var11 765)))
(assert (= "+" (str.at var8 100)))
(assert (= "." (str.at var28 358)))
(assert (= "$" (str.at var33 604)))
(assert (= "{" (str.at var20 325)))
(assert (= "Z" (str.at var2 981)))
(assert (= "J" (str.at var3 130)))
(assert (= "b" (str.at var12 482)))
(assert (= "u" (str.at var18 592)))
(assert (= "9" (str.at var42 210)))
(assert (= "H" (str.at var1 84)))
(assert (= "[" (str.at var50 61)))
(assert (= ")" (str.at var13 243)))
(assert (= "A" (str.at var23 946)))
(assert (= "@" (str.at var16 720)))
(assert (= "T" (str.at var14 350)))
(assert (= "." (str.at var33 714)))
(assert (= "%" (str.at var35 123)))
(assert (= "c" (str.at var36 646)))
(assert (= "m" (str.at var49 887)))
(assert (= "u" (str.at var44 738)))
(assert (= "#" (str.at var17 510)))
(assert (= "Z" (str.at var52 308)))
(assert (= "@" (str.at var20 791)))
(assert (= "5" (str.at var27 100)))
(assert (= "1" (str.at var51 413)))
(assert (= ">" (str.at var26 840)))
(assert (= "R" (str.at var3 898)))
(assert (= "3" (str.at var12 670)))
(assert (= "V" (str.at var47 790)))
(assert (= "-" (str.at var15 739)))
(assert (= "8" (str.at var32 565)))
(assert (= "?" (str.at var26 91)))
(assert (= "Q" (str.at var2 967)))
(assert (= "!" (str.at var60 695)))
(assert (= "n" (str.at var51 311)))
(assert (= "J" (str.at var35 257)))
(assert (= "u" (str.at var2 263)))
(assert (= "D" (str.at var16 288)))
(assert (= "|" (str.at var14 15)))
(assert (= "~" (str.at var20 250)))
(assert (= "V" (str.at var2 798)))
(assert (= "P" (str.at var53 725)))
(assert (= "|" (str.at var12 230)))
(assert (= "," (str.at var2 628)))
(assert (= "+" (str.at var53 450)))
(assert (= "l" (str.at var11 767)))
(assert (= "K" (str.at var24 924)))
(assert (= ":" (str.at var10 871)))
(assert (= "U" (str.at var43 480)))
(assert (= "x" (str.at var33 317)))
(assert (= "[" (str.at var32 924)))
(assert (= "w" (str.at var44 548)))
(assert (= "A" (str.at var3 797)))
(assert (= "0" (str.at var6 48)))
(assert (= "(" (str.at var7 265)))
(assert (= "G" (str.at var15 835)))
(assert (= "T" (str.at var54 506)))
(assert (= "4" (str.at var19 270)))
(assert (= "." (str.at var34 122)))
(assert (= "x" (str.at var16 541)))
(assert (= "p" (str.at var56 955)))
(assert (= "{" (str.at var46 907)))
(assert (= "d" (str.at var27 647)))
(assert (= "_" (str.at var13 919)))
(assert (= "R" (str.at var9 795)))
(assert (= "3" (str.at var39 873)))
(assert (= "R" (str.at var6 975)))
(assert (= "T" (str.at var36 753)))
(assert (= "&" (str.at var59 852)))
(assert (= "W" (str.at var22 900)))
(assert (= "p" (str.at var20 421)))
(assert (= "b" (str.at var22 777)))
(assert (= "S" (str.at var54 769)))
(assert (= "p" (str.at var41 171)))
(assert (= "F" (str.at var53 801)))
(assert (= "C" (str.at var26 401)))
(assert (= "C" (str.at var48 490)))
(assert (= ")" (str.at var45 802)))
(assert (= """" (str.at var4 666)))
(assert (= "T" (str.at var24 791)))
(assert (= "f" (str.at var13 393)))
(assert (= "P" (str.at var42 463)))
(assert (= "3" (str.at var27 610)))
(assert (= "W" (str.at var2 761)))
(assert (= "+" (str.at var3 13)))
(assert (= "z" (str.at var34 383)))
(assert (= "+" (str.at var48 811)))
(assert (= "]" (str.at var0 205)))
(assert (= "v" (str.at var45 209)))
(assert (= "}" (str.at var22 94)))
(assert (= "[" (str.at var17 471)))
(assert (= "N" (str.at var5 792)))
(assert (= """" (str.at var17 59)))
(assert (= "{" (str.at var7 873)))
(assert (= "B" (str.at var47 22)))
(assert (= ";" (str.at var30 215)))
(assert (= "-" (str.at var6 494)))
(assert (= "\\" (str.at var27 163)))
(assert (= "0" (str.at var25 813)))
(assert (= "D" (str.at var32 531)))
(assert (= "j" (str.at var14 181)))
(assert (= "K" (str.at var23 596)))
(assert (= "-" (str.at var41 556)))
(assert (= "~" (str.at var44 442)))
(assert (= "z" (str.at var54 526)))
(assert (= ":" (str.at var45 788)))
(assert (= "[" (str.at var0 242)))
(assert (= "n" (str.at var48 975)))
(assert (= "s" (str.at var28 493)))
(assert (= "L" (str.at var32 191)))
(assert (= "o" (str.at var58 807)))
(assert (= "8" (str.at var43 145)))
(assert (= "*" (str.at var9 662)))
(assert (= "N" (str.at var9 509)))
(assert (= "c" (str.at var39 988)))
(assert (= "*" (str.at var49 625)))
(assert (= "u" (str.at var24 475)))
(assert (= "R" (str.at var55 946)))
(assert (= "6" (str.at var10 312)))
(assert (= "I" (str.at var24 397)))
(assert (= "7" (str.at var7 127)))
(assert (= "X" (str.at var58 481)))
(assert (= "," (str.at var21 882)))
(assert (= "W" (str.at var48 316)))
(assert (= "o" (str.at var14 376)))
(assert (= "2" (str.at var26 776)))
(assert (= "d" (str.at var24 897)))
(assert (= "M" (str.at var11 28)))
(assert (= "D" (str.at var55 265)))
(assert (= "?" (str.at var48 91)))
(assert (= "w" (str.at var52 325)))
(assert (= "f" (str.at var56 684)))
(assert (= ")" (str.at var41 457)))
(assert (= "$" (str.at var29 61)))
(assert (= "B" (str.at var3 817)))
(assert (= "b" (str.at var50 479)))
(assert (= "o" (str.at var25 918)))
(assert (= "f" (str.at var3 330)))
(assert (= "2" (str.at var53 198)))
(assert (= "s" (str.at var39 994)))
(assert (= "8" (str.at var2 993)))
(assert (= "P" (str.at var13 228)))
(assert (= "j" (str.at var31 737)))
(assert (= "p" (str.at var52 161)))
(assert (= "+" (str.at var26 77)))
(assert (= "u" (str.at var40 516)))
(assert (= "S" (str.at var28 553)))
(assert (= "<" (str.at var8 297)))
(assert (= "#" (str.at var20 648)))
(assert (= "'" (str.at var35 457)))
(assert (= "," (str.at var10 161)))
(assert (= "I" (str.at var35 200)))
(assert (= "K" (str.at var55 723)))
(assert (= "Y" (str.at var24 24)))
(assert (= "y" (str.at var55 178)))
(assert (= "T" (str.at var33 308)))
(assert (= "b" (str.at var52 268)))
(assert (= "." (str.at var27 685)))
(assert (= "M" (str.at var34 180)))
(assert (= "6" (str.at var12 516)))
(assert (= """" (str.at var3 309)))
(assert (= "x" (str.at var6 602)))
(assert (= "|" (str.at var6 188)))
(assert (= "[" (str.at var38 871)))
(assert (= "p" (str.at var44 671)))
(assert (= "$" (str.at var58 384)))
(assert (= """" (str.at var9 182)))
(assert (= "{" (str.at var3 504)))
(assert (= "." (str.at var18 311)))
(assert (= "^" (str.at var9 38)))
(assert (= "L" (str.at var8 637)))
(assert (= "v" (str.at var20 653)))
(assert (= "2" (str.at var57 779)))
(assert (= "5" (str.at var26 717)))
(assert (= "M" (str.at var54 702)))
(assert (= "M" (str.at var33 212)))
(assert (= "t" (str.at var41 447)))
(assert (= "/" (str.at var50 772)))
(assert (= "h" (str.at var19 905)))
(assert (= "Q" (str.at var33 800)))
(assert (= "F" (str.at var47 571)))
(assert (= "8" (str.at var4 244)))
(assert (= "L" (str.at var43 326)))
(assert (= "1" (str.at var30 569)))
(assert (= "u" (str.at var57 245)))
(assert (= "#" (str.at var48 151)))
(assert (= "r" (str.at var26 979)))
(assert (= "|" (str.at var35 571)))
(assert (= "P" (str.at var36 153)))
(assert (= "H" (str.at var15 364)))
(assert (= "'" (str.at var41 302)))
(assert (= "(" (str.at var18 996)))
(assert (= "5" (str.at var22 338)))
(assert (= "(" (str.at var8 427)))
(assert (= "-" (str.at var3 791)))
(assert (= "." (str.at var2 265)))
(assert (= "i" (str.at var30 411)))
(assert (= "E" (str.at var36 118)))
(assert (= "'" (str.at var1 15)))
(assert (= "}" (str.at var36 132)))
(assert (= "Z" (str.at var7 210)))
(assert (= "]" (str.at var8 839)))
(assert (= "A" (str.at var14 348)))
(assert (= "]" (str.at var19 773)))
(assert (= "Z" (str.at var14 151)))
(assert (= "~" (str.at var60 629)))
(assert (= "I" (str.at var58 516)))
(assert (= "t" (str.at var36 402)))
(assert (= "H" (str.at var1 966)))
(assert (= "5" (str.at var54 117)))
(assert (= "(" (str.at var30 596)))
(assert (= "6" (str.at var25 796)))
(assert (= "z" (str.at var57 205)))
(assert (= "`" (str.at var55 354)))
(assert (= ";" (str.at var2 963)))
(assert (= "s" (str.at var35 489)))
(assert (= "K" (str.at var29 713)))
(assert (= "}" (str.at var10 141)))
(assert (= "R" (str.at var47 262)))
(assert (= "[" (str.at var35 115)))
(assert (= "w" (str.at var1 324)))
(assert (= "T" (str.at var26 96)))
(assert (= "\\" (str.at var45 218)))
(assert (= "K" (str.at var4 913)))
(assert (= ":" (str.at var36 357)))
(assert (= "Y" (str.at var32 754)))
(assert (= "|" (str.at var50 662)))
(assert (= "8" (str.at var33 839)))
(assert (= "T" (str.at var48 604)))
(assert (= "4" (str.at var55 346)))
(assert (= "^" (str.at var13 11)))
(assert (= "R" (str.at var51 606)))
(assert (= "C" (str.at var2 979)))
(assert (= "7" (str.at var50 791)))
(assert (= "H" (str.at var0 51)))
(assert (= "}" (str.at var12 123)))
(assert (= "L" (str.at var13 28)))
(assert (= """" (str.at var39 24)))
(assert (= "p" (str.at var11 296)))
(assert (= "g" (str.at var46 633)))
(assert (= "~" (str.at var14 391)))
(assert (= "{" (str.at var49 762)))
(assert (= "d" (str.at var54 78)))
(assert (= "(" (str.at var34 136)))
(assert (= "w" (str.at var58 764)))
(assert (= "d" (str.at var3 754)))
(assert (= "(" (str.at var39 331)))
(assert (= "7" (str.at var3 843)))
(assert (= "6" (str.at var35 346)))
(assert (= ">" (str.at var17 482)))
(assert (= "]" (str.at var50 394)))
(assert (= "o" (str.at var0 374)))
(assert (= "v" (str.at var6 118)))
(assert (= "O" (str.at var23 390)))
(assert (= "J" (str.at var40 928)))
(assert (= "\\" (str.at var56 166)))
(assert (= "*" (str.at var40 365)))
(assert (= "E" (str.at var55 933)))
(assert (= "s" (str.at var13 203)))
(assert (= "d" (str.at var17 966)))
(assert (= "P" (str.at var1 729)))
(assert (= "S" (str.at var42 66)))
(assert (= "]" (str.at var27 115)))
(assert (= "q" (str.at var1 785)))
(assert (= "T" (str.at var33 287)))
(assert (= "<" (str.at var36 25)))
(assert (= "r" (str.at var16 329)))
(assert (= "/" (str.at var14 634)))
(assert (= "`" (str.at var1 5)))
(assert (= "m" (str.at var1 987)))
(assert (= "C" (str.at var8 238)))
(assert (= "m" (str.at var48 314)))
(assert (= "+" (str.at var48 320)))
(assert (= "x" (str.at var10 125)))
(assert (= "O" (str.at var0 643)))
(assert (= "8" (str.at var48 841)))
(assert (= "D" (str.at var1 702)))
(assert (= "B" (str.at var53 533)))
(assert (= "&" (str.at var47 234)))
(assert (= "g" (str.at var16 678)))
(assert (= ")" (str.at var17 349)))
(assert (= "s" (str.at var38 14)))
(assert (= ")" (str.at var28 270)))
(assert (= "5" (str.at var54 306)))
(assert (= "2" (str.at var43 524)))
(assert (= "F" (str.at var37 484)))
(assert (= "y" (str.at var54 565)))
(assert (= "3" (str.at var3 811)))
(assert (= "I" (str.at var51 56)))
(assert (= "U" (str.at var16 571)))
(assert (= "m" (str.at var17 622)))
(assert (= "W" (str.at var26 933)))
(assert (= """" (str.at var12 81)))
(assert (= "u" (str.at var8 51)))
(assert (= "$" (str.at var47 237)))
(assert (= "x" (str.at var53 574)))
(assert (= "c" (str.at var27 19)))
(assert (= "Q" (str.at var33 219)))
(assert (= "t" (str.at var35 578)))
(assert (= "|" (str.at var4 271)))
(assert (= "R" (str.at var20 615)))
(assert (= "m" (str.at var19 817)))
(assert (= "@" (str.at var19 673)))
(assert (= "6" (str.at var23 995)))
(assert (= "]" (str.at var54 724)))
(assert (= "7" (str.at var43 629)))
(assert (= "4" (str.at var33 344)))
(assert (= "5" (str.at var42 278)))
(assert (= "$" (str.at var55 737)))
(assert (= "7" (str.at var0 24)))
(assert (= "7" (str.at var38 226)))
(assert (= "7" (str.at var36 895)))
(assert (= "G" (str.at var17 987)))
(assert (= "}" (str.at var2 18)))
(assert (= "\\" (str.at var10 907)))
(assert (= "j" (str.at var22 271)))
(assert (= "-" (str.at var45 764)))
(assert (= "l" (str.at var60 762)))
(assert (= "@" (str.at var2 968)))
(assert (= "'" (str.at var32 242)))
(assert (= """" (str.at var16 747)))
(assert (= "v" (str.at var57 753)))
(assert (= "g" (str.at var32 297)))
(assert (= "4" (str.at var18 941)))
(assert (= "g" (str.at var37 171)))
(assert (= "g" (str.at var32 302)))
(assert (= "f" (str.at var39 388)))
(assert (= "L" (str.at var35 452)))
(assert (= "s" (str.at var42 0)))
(assert (= "B" (str.at var3 459)))
(assert (= "[" (str.at var48 509)))
(assert (= "Q" (str.at var58 623)))
(assert (= "0" (str.at var50 191)))
(assert (= ">" (str.at var46 995)))
(assert (= "!" (str.at var28 672)))
(assert (= "H" (str.at var40 617)))
(assert (= "E" (str.at var25 722)))
(assert (= "'" (str.at var12 171)))
(assert (= "L" (str.at var45 619)))
(assert (= "}" (str.at var24 17)))
(assert (= "`" (str.at var29 616)))
(assert (= "e" (str.at var18 566)))
(assert (= "C" (str.at var28 405)))
(assert (= "6" (str.at var1 46)))
(assert (= "n" (str.at var57 499)))
(assert (= "n" (str.at var32 930)))
(assert (= "x" (str.at var41 6)))
(assert (= "~" (str.at var32 854)))
(assert (= "N" (str.at var6 226)))
(assert (= "r" (str.at var2 384)))
(assert (= "f" (str.at var39 640)))
(assert (= "a" (str.at var33 234)))
(assert (= "/" (str.at var8 855)))
(assert (= "b" (str.at var10 486)))
(assert (= "]" (str.at var43 614)))
(assert (= "*" (str.at var59 468)))
(assert (= "Q" (str.at var17 705)))
(assert (= "I" (str.at var49 584)))
(assert (= "\\" (str.at var27 937)))
(assert (= "W" (str.at var22 655)))
(assert (= "@" (str.at var30 58)))
(assert (= "7" (str.at var55 822)))
(assert (= "`" (str.at var31 161)))
(assert (= "L" (str.at var1 950)))
(assert (= "6" (str.at var47 932)))
(assert (= "U" (str.at var43 619)))
(assert (= "N" (str.at var54 475)))
(assert (= "4" (str.at var27 660)))
(assert (= "-" (str.at var1 83)))
(assert (= "C" (str.at var14 148)))
(assert (= "}" (str.at var14 329)))
(assert (= "u" (str.at var15 158)))
(assert (= "%" (str.at var27 118)))
(assert (= "q" (str.at var27 912)))
(assert (= "W" (str.at var53 245)))
(assert (= "@" (str.at var4 919)))
(assert (= "b" (str.at var28 240)))
(assert (= "C" (str.at var25 130)))
(assert (= "<" (str.at var21 443)))
(assert (= "i" (str.at var40 423)))
(assert (= "D" (str.at var41 192)))
(assert (= "A" (str.at var50 976)))
(assert (= "T" (str.at var48 67)))
(assert (= "B" (str.at var38 983)))
(assert (= "u" (str.at var24 446)))
(assert (= "u" (str.at var8 425)))
(assert (= "L" (str.at var49 517)))
(assert (= "p" (str.at var22 583)))
(assert (= "e" (str.at var42 73)))
(assert (= "t" (str.at var4 687)))
(assert (= "|" (str.at var32 329)))
(assert (= "2" (str.at var35 574)))
(assert (= "r" (str.at var4 984)))
(assert (= "'" (str.at var52 417)))
(assert (= "0" (str.at var55 503)))
(assert (= "3" (str.at var9 617)))
(assert (= "y" (str.at var8 996)))
(assert (= "P" (str.at var0 586)))
(assert (= "|" (str.at var33 959)))
(assert (= "#" (str.at var18 101)))
(assert (= "L" (str.at var4 430)))
(assert (= "y" (str.at var59 745)))
(assert (= "(" (str.at var54 926)))
(assert (= "&" (str.at var50 487)))
(assert (= "9" (str.at var7 592)))
(assert (= "2" (str.at var52 352)))
(assert (= "]" (str.at var20 145)))
(assert (= "S" (str.at var47 125)))
(assert (= "J" (str.at var55 936)))
(assert (= "S" (str.at var37 258)))
(assert (= """" (str.at var2 913)))
(assert (= "X" (str.at var48 303)))
(assert (= "{" (str.at var29 39)))
(assert (= "D" (str.at var22 177)))
(assert (= "O" (str.at var55 301)))
(assert (= "'" (str.at var23 568)))
(assert (= "q" (str.at var12 926)))
(assert (= "I" (str.at var14 174)))
(assert (= "&" (str.at var59 839)))
(assert (= "," (str.at var6 558)))
(assert (= "h" (str.at var18 711)))
(assert (= "s" (str.at var2 929)))
(assert (= "J" (str.at var44 832)))
(assert (= "u" (str.at var3 774)))
(assert (= "g" (str.at var17 867)))
(assert (= "l" (str.at var53 796)))
(assert (= "I" (str.at var60 47)))
(assert (= "h" (str.at var22 345)))
(assert (= "}" (str.at var9 557)))
(assert (= "|" (str.at var6 752)))
(assert (= "O" (str.at var2 528)))
(assert (= "X" (str.at var36 722)))
(assert (= "#" (str.at var8 252)))
(assert (= "0" (str.at var27 324)))
(assert (= "V" (str.at var30 948)))
(assert (= "'" (str.at var26 793)))
(assert (= "!" (str.at var5 877)))
(assert (= "+" (str.at var15 426)))
(assert (= "t" (str.at var60 734)))
(assert (= "B" (str.at var50 55)))
(assert (= "`" (str.at var46 920)))
(assert (= "l" (str.at var12 978)))
(assert (= "@" (str.at var51 797)))
(assert (= "+" (str.at var16 270)))
(assert (= "A" (str.at var60 282)))
(assert (= ")" (str.at var27 544)))
(assert (= "H" (str.at var24 141)))
(assert (= "=" (str.at var3 990)))
(assert (= "!" (str.at var28 105)))
(assert (= "_" (str.at var34 776)))
(assert (= "X" (str.at var16 111)))
(assert (= "V" (str.at var45 851)))
(assert (= "#" (str.at var7 91)))
(assert (= "1" (str.at var56 607)))
(assert (= "a" (str.at var16 94)))
(assert (= "K" (str.at var55 853)))
(assert (= ":" (str.at var38 880)))
(assert (= "[" (str.at var35 226)))
(assert (= "~" (str.at var14 245)))
(assert (= "p" (str.at var55 56)))
(assert (= "e" (str.at var15 103)))
(assert (= "w" (str.at var51 43)))
(assert (= "@" (str.at var42 390)))
(assert (= "H" (str.at var45 842)))
(assert (= "i" (str.at var21 722)))
(assert (= "I" (str.at var21 693)))
(assert (= "p" (str.at var43 342)))
(assert (= "z" (str.at var22 479)))
(assert (= "7" (str.at var2 501)))
(assert (= "(" (str.at var10 431)))
(assert (= "p" (str.at var60 895)))
(assert (= "z" (str.at var54 293)))
(assert (= "m" (str.at var0 909)))
(assert (= "J" (str.at var21 102)))
(assert (= ":" (str.at var51 876)))
(assert (= "\\" (str.at var47 272)))
(assert (= "s" (str.at var11 753)))
(assert (= "." (str.at var45 883)))
(assert (= "|" (str.at var58 570)))
(assert (= "J" (str.at var11 304)))
(assert (= "h" (str.at var22 272)))
(assert (= "G" (str.at var10 251)))
(assert (= "n" (str.at var0 682)))
(assert (= "R" (str.at var46 476)))
(assert (= "d" (str.at var49 188)))
(assert (= "Y" (str.at var35 67)))
(assert (= "+" (str.at var19 918)))
(assert (= "B" (str.at var2 609)))
(assert (= "." (str.at var48 705)))
(assert (= "R" (str.at var0 13)))
(assert (= "l" (str.at var30 407)))
(assert (= "N" (str.at var46 434)))
(assert (= "e" (str.at var50 928)))
(assert (= "t" (str.at var44 741)))
(assert (= "|" (str.at var46 767)))
(assert (= "g" (str.at var5 984)))
(assert (= "j" (str.at var35 583)))
(assert (= ">" (str.at var15 894)))
(assert (= "'" (str.at var58 605)))
(assert (= "I" (str.at var39 478)))
(assert (= "z" (str.at var60 252)))
(assert (= ":" (str.at var58 388)))
(assert (= "V" (str.at var43 146)))
(assert (= "%" (str.at var40 299)))
(assert (= "#" (str.at var9 593)))
(assert (= "!" (str.at var42 538)))
(assert (= "<" (str.at var53 505)))
(assert (= "x" (str.at var27 303)))
(assert (= "i" (str.at var5 766)))
(assert (= "u" (str.at var22 533)))
(assert (= "T" (str.at var32 880)))
(assert (= "C" (str.at var37 59)))
(assert (= "u" (str.at var41 511)))
(assert (= "}" (str.at var19 80)))
(assert (= "," (str.at var41 901)))
(assert (= "I" (str.at var54 462)))
(assert (= "p" (str.at var50 440)))
(assert (= "J" (str.at var54 150)))
(assert (= "Z" (str.at var46 287)))
(assert (= "(" (str.at var6 845)))
(assert (= "L" (str.at var50 48)))
(assert (= "{" (str.at var3 739)))
(assert (= "V" (str.at var33 242)))
(assert (= "r" (str.at var17 806)))
(assert (= "x" (str.at var30 392)))
(assert (= """" (str.at var36 876)))
(assert (= "c" (str.at var19 211)))
(assert (= "_" (str.at var0 757)))
(assert (= "5" (str.at var13 501)))
(assert (= "G" (str.at var59 909)))
(assert (= "|" (str.at var38 628)))
(assert (= "&" (str.at var34 38)))
(assert (= "5" (str.at var55 259)))
(assert (= "j" (str.at var48 690)))
(assert (= "i" (str.at var31 507)))
(assert (= "I" (str.at var4 499)))
(assert (= "g" (str.at var11 895)))
(assert (= ">" (str.at var18 696)))
(assert (= "E" (str.at var30 636)))
(assert (= "{" (str.at var46 589)))
(assert (= "3" (str.at var19 696)))
(assert (= "?" (str.at var28 960)))
(assert (= "h" (str.at var13 295)))
(assert (= "n" (str.at var19 158)))
(assert (= "f" (str.at var56 885)))
(assert (= "U" (str.at var18 450)))
(assert (= "P" (str.at var18 982)))
(assert (= "#" (str.at var54 420)))
(assert (= "k" (str.at var8 737)))
(assert (= "h" (str.at var57 299)))
(assert (= "n" (str.at var8 749)))
(assert (= "$" (str.at var26 661)))
(assert (= "r" (str.at var56 489)))
(assert (= "d" (str.at var34 300)))
(assert (= "'" (str.at var42 775)))
(assert (= "M" (str.at var60 55)))
(assert (= "6" (str.at var45 305)))
(assert (= "J" (str.at var40 752)))
(assert (= "," (str.at var28 748)))
(assert (= "B" (str.at var14 999)))
(assert (= "4" (str.at var7 956)))
(assert (= "f" (str.at var54 356)))
(assert (= "C" (str.at var45 326)))
(assert (= "K" (str.at var43 582)))
(assert (= "T" (str.at var43 205)))
(assert (= "E" (str.at var21 159)))
(assert (= ":" (str.at var0 351)))
(assert (= "h" (str.at var20 515)))
(assert (= "-" (str.at var7 618)))
(assert (= "8" (str.at var1 130)))
(assert (= "t" (str.at var9 293)))
(assert (= "f" (str.at var25 798)))
(assert (= "'" (str.at var1 755)))
(assert (= "Y" (str.at var29 18)))
(assert (= "d" (str.at var14 610)))
(assert (= "g" (str.at var12 92)))
(assert (= "5" (str.at var26 518)))
(assert (= "-" (str.at var0 717)))
(assert (= "'" (str.at var42 455)))
(assert (= ":" (str.at var33 342)))
(assert (= "0" (str.at var53 105)))
(assert (= "t" (str.at var4 760)))
(assert (= ">" (str.at var38 102)))
(assert (= "t" (str.at var33 711)))
(assert (= "D" (str.at var6 618)))
(assert (= "*" (str.at var50 316)))
(assert (= "r" (str.at var16 247)))
(assert (= "b" (str.at var4 449)))
(assert (= "w" (str.at var34 921)))
(assert (= "y" (str.at var32 875)))
(assert (= "0" (str.at var16 733)))
(assert (= "}" (str.at var39 27)))
(assert (= "\\" (str.at var50 820)))
(assert (= "2" (str.at var52 276)))
(assert (= "W" (str.at var23 130)))
(assert (= "g" (str.at var6 451)))
(assert (= "I" (str.at var49 928)))
(assert (= "l" (str.at var53 695)))
(assert (= "#" (str.at var10 352)))
(assert (= "f" (str.at var19 585)))
(assert (= "U" (str.at var45 37)))
(assert (= "H" (str.at var18 992)))
(assert (= "}" (str.at var2 15)))
(assert (= "|" (str.at var46 270)))
(assert (= "," (str.at var51 446)))
(assert (= "4" (str.at var28 681)))
(assert (= "t" (str.at var15 160)))
(assert (= "u" (str.at var58 355)))
(assert (= "i" (str.at var26 686)))
(assert (= "3" (str.at var13 184)))
(assert (= "7" (str.at var60 264)))
(assert (= "?" (str.at var43 368)))
(assert (= "]" (str.at var36 20)))
(assert (= "{" (str.at var14 352)))
(assert (= "}" (str.at var40 238)))
(assert (= "J" (str.at var20 549)))
(assert (= "v" (str.at var46 120)))
(assert (= "@" (str.at var50 726)))
(assert (= "A" (str.at var40 665)))
(assert (= "]" (str.at var24 972)))
(assert (= "," (str.at var1 636)))
(assert (= "H" (str.at var58 262)))
(assert (= "&" (str.at var33 579)))
(assert (= "s" (str.at var39 697)))
(assert (= "0" (str.at var39 17)))
(assert (= "j" (str.at var24 312)))
(assert (= "`" (str.at var8 345)))
(assert (= "2" (str.at var38 852)))
(assert (= "_" (str.at var20 701)))
(assert (= "e" (str.at var10 664)))
(assert (= "C" (str.at var43 780)))
(assert (= "D" (str.at var19 993)))
(assert (= "H" (str.at var52 781)))
(assert (= "!" (str.at var2 485)))
(assert (= "D" (str.at var29 148)))
(assert (= "T" (str.at var33 857)))
(assert (= "2" (str.at var22 699)))
(assert (= "E" (str.at var22 500)))
(assert (= """" (str.at var16 178)))
(assert (= "?" (str.at var36 715)))
(assert (= "b" (str.at var39 501)))
(assert (= "~" (str.at var21 355)))
(assert (= "L" (str.at var30 203)))
(assert (= "v" (str.at var53 735)))
(assert (= "D" (str.at var47 446)))
(assert (= "." (str.at var5 655)))
(assert (= "s" (str.at var60 236)))
(assert (= "T" (str.at var58 191)))
(assert (= "u" (str.at var42 43)))
(assert (= "B" (str.at var42 60)))
(assert (= "y" (str.at var30 871)))
(assert (= "?" (str.at var7 659)))
(assert (= "3" (str.at var59 257)))
(assert (= "=" (str.at var25 161)))
(assert (= "g" (str.at var30 519)))
(assert (= "f" (str.at var34 556)))
(assert (= "W" (str.at var27 833)))
(assert (= "," (str.at var39 127)))
(assert (= ">" (str.at var54 714)))
(assert (= "8" (str.at var36 353)))
(assert (= "J" (str.at var53 428)))
(assert (= "," (str.at var51 249)))
(assert (= "&" (str.at var9 58)))
(assert (= "2" (str.at var27 759)))
(check-sat)
(get-model)